26858
0 0 1 0 0 1 1 0 0 0 0 1 0 0 0 0 0 0 0 0 1 0 0 0 0 0 0 0 0 0 
6 5 6 2 6 5 6 5 6 11 20 6 6 20 20 20 2 11 5 11 20 2 20 20 20 20 2 11 5 2 2 5 6 5 20 20 11 5 20 2 11 20 11 6 11 11 6 20 5 20 2 6 11 5 6 20 2 2 2 11 11 5 20 5 11 5 5 11 6 20 6 6 5 2 11 20 2 20 6 5 6 11 6 11 2 11 2 2 20 5 2 5 2 11 2 5 2 6 2 6 6 2 11 11 2 5 2 11 20 20 11 20 2 11 5 6 11 11 5 5 5 6 5 20 6 2 5 20 2 6 11 2 11 6 6 11 2 5 20 11 11 6 20 2 20 5 11 5 2 5 